100
128
17
11
14
11
60
17
24
38
21
47
58
35
38
17
26
31
33
2
24
49
55
6
27
4
32
13
41
31
43
45
2
40
28
55
20
26
21
2
34
27
51
8
20
41
41
37
22
57
63
50
53
5
1
2
60
24
12
61
3
7
48
6
29
5
48
6
17
32
45
46
54
39
32
37
23
26
53
47
42
50
44
56
43
2
53
44
60
26
21
24
37
8
13
34
18
4
64
48
2
1